\ Model opf_with_dc_load_flow_copy_copy
\ LP format - for model browsing. Use MPS format to capture full model detail.
Minimize
 
Subject To
 line_loading_46_0: 100 abs_current_mag_ka_0_46 <= -2.236694401604097
Bounds
End
